data;


param d:= 100;
param r:=5;
param p:=0.600000;
param M:=1000;
param U:=
         1         1       -2.584277e-01
         2         1       -2.268443e-01
         3         1       -3.861299e-01
         4         1        1.237426e-01
         5         1        8.418634e-01
         6         1       -1.229805e+00
         7         1       -9.385515e-01
         8         1       -1.080621e+00
         9         1       -2.051371e-01
        10         1        5.866655e-01
        11         1       -1.687431e-01
        12         1       -8.035755e-01
        13         1       -1.381274e+00
        14         1       -9.422073e-01
        15         1       -2.927996e+00
        16         1        1.456142e-01
        17         1        1.407394e+00
        18         1        7.994791e-01
        19         1       -6.971140e-01
        20         1       -3.644814e-01
        21         1        1.296997e+00
        22         1        8.786629e-01
        23         1       -1.664636e+00
        24         1       -2.073160e+00
        25         1        1.661554e+00
        26         1        5.829681e-01
        27         1       -1.095361e-01
        28         1        2.183813e-02
        29         1        1.409232e+00
        30         1        2.083601e-01
        31         1        1.919041e+00
        32         1        1.187997e+00
        33         1       -1.174347e+00
        34         1        2.042077e+00
        35         1       -9.690170e-01
        36         1        1.421707e+00
        37         1        8.499637e-01
        38         1       -6.006052e-01
        39         1       -1.384917e+00
        40         1       -6.385640e-01
        41         1        8.739420e-03
        42         1       -4.371149e-02
        43         1        1.901540e+00
        44         1        6.265984e-01
        45         1       -2.865873e-01
        46         1       -1.034644e-01
        47         1       -3.620387e-01
        48         1       -4.278829e-01
        49         1        3.511678e-01
        50         1       -1.496597e+00
        51         1       -1.403592e-01
        52         1        6.315005e-01
        53         1       -9.593907e-01
        54         1        9.052049e-01
        55         1       -8.183722e-01
        56         1        2.202538e-01
        57         1       -2.141119e+00
        58         1       -2.894583e-01
        59         1        3.265727e-01
        60         1       -5.130910e-01
        61         1       -1.923532e-01
        62         1       -1.018795e-01
        63         1       -1.500738e+00
        64         1        4.620567e-01
        65         1        2.114430e+00
        66         1        7.130821e-01
        67         1        2.791866e-01
        68         1        6.609008e-01
        69         1        4.384458e-01
        70         1       -1.195958e-01
        71         1        1.672322e+00
        72         1        3.748651e-01
        73         1       -1.194352e+00
        74         1       -1.309068e+00
        75         1        9.023803e-01
        76         1        8.375054e-01
        77         1        4.728148e-01
        78         1       -9.166953e-01
        79         1        9.310583e-01
        80         1        6.784803e-01
        81         1       -1.992010e-01
        82         1       -1.004528e-01
        83         1       -8.868676e-01
        84         1        2.556261e+00
        85         1       -7.143309e-02
        86         1       -4.050809e-01
        87         1       -2.199693e-01
        88         1       -1.866956e+00
        89         1       -4.388542e-01
        90         1       -1.159355e-02
        91         1       -7.805813e-01
        92         1       -3.553164e-01
        93         1       -1.578691e+00
        94         1        4.684734e-01
        95         1       -5.499989e-02
        96         1       -1.713570e+00
        97         1       -1.459441e+00
        98         1        9.113472e-01
        99         1       -1.353286e+00
       100         1        2.044539e-02
         1         2        9.114370e-01
         2         2        7.523401e-01
         3         2       -1.275267e+00
         4         2        2.264162e-01
         5         2       -9.757575e-01
         6         2       -8.349065e-01
         7         2       -8.931824e-01
         8         2       -4.544410e-01
         9         2       -1.429803e+00
        10         2        6.223186e-01
        11         2       -9.536350e-01
        12         2       -1.288666e+00
        13         2       -1.866486e-01
        14         2        1.931441e+00
        15         2       -2.666639e-01
        16         2       -5.849326e-01
        17         2        4.039026e-01
        18         2        4.172215e-01
        19         2        1.112975e+00
        20         2        3.703389e-01
        21         2       -1.343041e+00
        22         2       -3.765510e-01
        23         2        6.251798e-01
        24         2        1.388652e+00
        25         2       -1.173817e+00
        26         2       -8.972463e-01
        27         2        5.034038e-01
        28         2       -2.004591e-01
        29         2        1.211776e+00
        30         2       -1.746275e-01
        31         2        6.081337e-01
        32         2       -8.116540e-01
        33         2        1.525358e+00
        34         2        5.855544e-01
        35         2        3.649556e-01
        36         2        1.465199e-01
        37         2        1.581187e-01
        38         2        9.942951e-01
        39         2       -4.641542e-01
        40         2        8.267203e-01
        41         2        1.292999e+00
        42         2        7.906721e-01
        43         2        1.960167e+00
        44         2        1.128729e-01
        45         2       -1.288389e+00
        46         2        3.051866e-01
        47         2       -1.202387e+00
        48         2        1.305428e+00
        49         2       -1.786346e+00
        50         2        6.734259e-01
        51         2        1.770805e-01
        52         2        9.771584e-01
        53         2        1.974455e+00
        54         2       -8.789525e-02
        55         2        2.801506e-01
        56         2       -1.008492e+00
        57         2       -2.287790e+00
        58         2       -3.155019e-01
        59         2       -2.096752e+00
        60         2       -2.279083e+00
        61         2       -3.294318e-01
        62         2        2.472030e-01
        63         2        1.765461e-01
        64         2        4.677317e-01
        65         2       -4.248257e-01
        66         2        1.017390e+00
        67         2       -1.271841e-01
        68         2       -1.764425e+00
        69         2        1.856345e+00
        70         2       -8.376772e-02
        71         2       -1.354940e-01
        72         2       -3.680939e-01
        73         2        3.910296e-01
        74         2       -7.934624e-01
        75         2        2.019825e+00
        76         2        1.699982e+00
        77         2        6.603382e-01
        78         2       -2.142536e-01
        79         2        2.474654e+00
        80         2        4.580628e-03
        81         2        6.487375e-01
        82         2        1.467580e-01
        83         2       -2.222105e-01
        84         2        4.648290e-01
        85         2        8.109915e-01
        86         2       -9.898779e-01
        87         2       -4.055991e-01
        88         2       -1.019296e+00
        89         2       -4.383158e-01
        90         2       -2.333222e+00
        91         2        2.688313e-01
        92         2        1.169887e+00
        93         2       -2.369948e-01
        94         2       -7.747330e-01
        95         2       -1.947100e-01
        96         2        2.259091e-01
        97         2        5.057360e-01
        98         2       -1.244867e+00
        99         2       -1.017105e-01
       100         2        1.418328e+00
         1         3       -1.238035e+00
         2         3        1.681462e+00
         3         3        9.516761e-01
         4         3       -9.065245e-01
         5         3       -5.498690e-01
         6         3        1.895940e-01
         7         3       -1.834839e-01
         8         3        8.578390e-01
         9         3       -1.034572e-01
        10         3       -2.339408e+00
        11         3        2.708026e-01
        12         3        4.669156e-01
        13         3        1.410735e+00
        14         3       -1.016065e+00
        15         3        1.159146e+00
        16         3       -1.160947e+00
        17         3       -1.280242e+00
        18         3        8.252221e-02
        19         3        2.079724e-01
        20         3       -5.570900e-01
        21         3       -5.418321e-01
        22         3        1.785340e+00
        23         3       -4.253271e-01
        24         3        9.706046e-01
        25         3       -3.784189e-01
        26         3       -8.062885e-01
        27         3        6.792445e-01
        28         3       -6.736198e-01
        29         3        2.119215e-01
        30         3       -3.094910e+00
        31         3        8.621693e-01
        32         3        1.134568e+00
        33         3        3.492651e-01
        34         3        1.026359e+00
        35         3       -4.920819e-01
        36         3       -1.416135e+00
        37         3        8.675553e-01
        38         3        1.621721e-01
        39         3       -1.846426e-01
        40         3        1.231421e+00
        41         3       -1.994371e-01
        42         3        1.165174e+00
        43         3        1.441119e+00
        44         3        1.626346e-01
        45         3        1.243346e+00
        46         3       -5.222539e-01
        47         3        1.593216e+00
        48         3        7.210625e-01
        49         3        1.191319e+00
        50         3       -4.754903e-01
        51         3        1.322557e+00
        52         3       -1.096387e+00
        53         3       -1.747688e+00
        54         3        7.035187e-02
        55         3       -1.822077e-01
        56         3        2.086024e-01
        57         3       -1.177187e+00
        58         3       -2.386660e-01
        59         3       -2.947318e-01
        60         3        5.846820e-01
        61         3       -3.007453e-01
        62         3        1.776501e+00
        63         3       -4.941688e-01
        64         3        1.024823e+00
        65         3       -2.307455e+00
        66         3       -7.885179e-01
        67         3        1.244637e+00
        68         3       -6.311564e-01
        69         3       -4.122665e-01
        70         3       -1.364943e+00
        71         3        1.174009e+00
        72         3        2.226329e+00
        73         3        6.791252e-01
        74         3       -1.141522e+00
        75         3       -5.945973e-01
        76         3       -3.610622e-01
        77         3       -5.863692e-01
        78         3        8.786683e-01
        79         3       -1.327434e+00
        80         3       -1.129174e+00
        81         3        2.385672e-02
        82         3       -9.360132e-01
        83         3        1.819309e-01
        84         3        1.098994e+00
        85         3       -3.444341e-01
        86         3       -3.303615e-01
        87         3       -3.376764e-01
        88         3       -8.163616e-01
        89         3        1.157845e+00
        90         3        3.234930e-01
        91         3       -5.170949e-01
        92         3        7.868882e-01
        93         3        2.178574e-01
        94         3       -1.768196e+00
        95         3       -6.650802e-01
        96         3        5.536154e-01
        97         3       -2.902530e-01
        98         3        1.063941e+00
        99         3       -5.955059e-01
       100         3        5.746777e-01
         1         4        1.077087e+00
         2         4        6.286442e-01
         3         4        3.940366e-01
         4         4        1.837304e+00
         5         4        6.709290e-01
         6         4       -4.942105e-02
         7         4        1.472483e+00
         8         4       -9.743934e-02
         9         4        9.757309e-01
        10         4        9.053177e-01
        11         4        1.186596e+00
        12         4        2.659893e+00
        13         4        7.178057e-01
        14         4        2.071888e-01
        15         4        4.228139e-02
        16         4        7.752599e-01
        17         4       -3.297566e-01
        18         4        2.369493e-01
        19         4        1.266279e+00
        20         4        5.244208e-01
        21         4        8.125585e-01
        22         4       -7.821636e-01
        23         4       -1.189938e+00
        24         4       -6.386142e-01
        25         4       -5.987795e-01
        26         4        2.216697e-01
        27         4       -2.815179e-01
        28         4        1.026048e+00
        29         4       -2.154451e+00
        30         4       -2.365339e-01
        31         4        4.571827e-01
        32         4       -4.300536e-01
        33         4        2.260628e-02
        34         4        1.821449e-01
        35         4        1.112365e+00
        36         4       -2.172685e+00
        37         4       -6.889766e-01
        38         4       -1.426261e+00
        39         4        4.541369e-01
        40         4       -8.269905e-02
        41         4       -7.041359e-01
        42         4        7.148085e-01
        43         4        7.774807e-01
        44         4        8.009309e-01
        45         4        8.018388e-01
        46         4        7.643100e-01
        47         4       -5.801155e-01
        48         4       -7.768393e-01
        49         4       -6.624902e-01
        50         4        2.249205e-01
        51         4        6.283729e-01
        52         4        8.780593e-01
        53         4       -2.795386e+00
        54         4       -1.561645e+00
        55         4        8.455870e-01
        56         4        1.414048e+00
        57         4        5.974559e-01
        58         4       -1.842990e+00
        59         4        7.890400e-01
        60         4        9.459643e-01
        61         4        8.388133e-01
        62         4        4.414554e-01
        63         4       -1.065534e+00
        64         4        1.052403e+00
        65         4        4.727711e-01
        66         4       -1.083182e-01
        67         4       -6.946058e-02
        68         4        5.942126e-01
        69         4       -7.053057e-01
        70         4        9.452515e-01
        71         4       -2.276378e-01
        72         4        3.860903e-01
        73         4       -6.857434e-01
        74         4       -3.636558e-01
        75         4        8.398046e-01
        76         4        3.323458e-01
        77         4        1.112082e-01
        78         4        1.118571e-01
        79         4        1.308233e+00
        80         4       -5.742750e-01
        81         4       -1.090749e+00
        82         4        1.276020e+00
        83         4       -9.058062e-01
        84         4        5.135646e-01
        85         4       -1.820216e+00
        86         4       -7.147319e-01
        87         4        8.560148e-01
        88         4       -3.146914e-01
        89         4       -7.345959e-01
        90         4       -8.108226e-02
        91         4       -1.029752e+00
        92         4        2.356898e-01
        93         4        1.324236e+00
        94         4        7.934248e-01
        95         4       -1.675379e+00
        96         4       -2.882682e-01
        97         4       -6.218623e-01
        98         4       -2.497251e+00
        99         4        6.064790e-01
       100         4       -4.987861e-01
         1         5        2.934591e-01
         2         5        3.712935e-01
         3         5       -1.411099e+00
         4         5       -2.801219e-01
         5         5       -4.070268e-01
         6         5        1.148135e+00
         7         5       -3.083458e-01
         8         5       -1.407167e-01
         9         5       -1.838981e+00
        10         5       -1.624409e+00
        11         5       -7.178321e-01
        12         5       -5.329374e-01
        13         5        1.322017e+00
        14         5       -2.356647e-01
        15         5       -1.974911e-01
        16         5       -1.806282e+00
        17         5       -8.578558e-01
        18         5        1.304485e+00
        19         5        2.855761e-01
        20         5        6.631660e-01
        21         5       -7.493482e-01
        22         5       -4.331608e-02
        23         5        2.434813e+00
        24         5       -3.668207e-01
        25         5       -4.382712e-01
        26         5        2.127853e+00
        27         5        2.945632e-02
        28         5       -1.377459e+00
        29         5        3.937801e-01
        30         5        1.063629e-01
        31         5        2.238266e-02
        32         5        3.794518e-01
        33         5       -2.355543e+00
        34         5        4.357930e-01
        35         5        7.505518e-01
        36         5        2.587621e-01
        37         5        1.340775e+00
        38         5        8.652606e-01
        39         5       -1.082159e+00
        40         5       -5.481812e-01
        41         5       -1.230572e+00
        42         5        3.134010e-01
        43         5        4.265194e-02
        44         5        1.699255e+00
        45         5       -2.237568e+00
        46         5        6.848512e-01
        47         5        7.959854e-01
        48         5       -1.674470e+00
        49         5       -2.779238e-01
        50         5        1.456096e-01
        51         5        4.545850e-01
        52         5       -1.202996e+00
        53         5        7.261024e-01
        54         5        6.822652e-01
        55         5       -2.047982e+00
        56         5        3.275087e-01
        57         5       -1.077880e+00
        58         5       -7.723500e-01
        59         5       -1.952939e-01
        60         5        7.270608e-01
        61         5       -1.263884e+00
        62         5       -1.012815e+00
        63         5        3.898249e-01
        64         5        1.826197e+00
        65         5       -1.203196e+00
        66         5       -1.504936e+00
        67         5        2.265177e+00
        68         5       -5.956883e-01
        69         5        8.184620e-02
        70         5        6.245511e-01
        71         5        9.764205e-01
        72         5       -6.165619e-01
        73         5        1.182618e+00
        74         5        7.597741e-01
        75         5       -1.520444e+00
        76         5       -9.092289e-01
        77         5        4.756331e-01
        78         5        8.087961e-01
        79         5        6.490240e-01
        80         5        5.372517e-01
        81         5        3.855024e-01
        82         5        1.923417e+00
        83         5       -1.280701e-01
        84         5       -1.602703e+00
        85         5       -1.427658e+00
        86         5       -1.306566e+00
        87         5        2.897071e-01
        88         5        3.423447e-01
        89         5       -8.862516e-01
        90         5        3.369155e-01
        91         5       -1.535554e+00
        92         5       -1.728455e+00
        93         5       -1.161956e+00
        94         5       -1.471038e+00
        95         5       -5.395815e-01
        96         5       -4.451462e-01
        97         5       -6.639277e-01
        98         5        3.478601e-01
        99         5        5.864490e-01
       100         5        1.118771e+00
;

param theta:=
    1        1.476431e+00
    2       -5.339707e-01
    3       -1.507718e+00
    4        7.648273e-01
    5       -1.366249e-01
;
param X_true:=
    1        1.629519e+00
    2       -2.646561e+00
    3       -8.973918e-01
    4        2.820193e+00
    5        3.070594e+00
    6       -1.858133e+00
    7        4.045658e-01
    8       -2.812638e+00
    9        1.633630e+00
   10        5.051209e+00
   11        7.999223e-01
   12        9.012326e-01
   13       -3.663463e+00
   14       -7.694538e-01
   15       -5.909908e+00
   16        3.094206e+00
   17        3.777396e+00
   18        8.437475e-01
   19       -1.120501e+00
   20        3.720102e-01
   21        4.150717e+00
   22       -1.857780e+00
   23       -3.358104e+00
   24       -5.544363e+00
   25        3.271879e+00
   26        2.339620e+00
   27       -1.560686e+00
   28        2.114585e+00
   29       -6.177491e-01
   30        4.992027e+00
   31        1.653443e+00
   32        1.499328e-02
   33       -2.942375e+00
   34        1.131266e+00
   35       -5.885096e-02
   36        2.371659e+00
   37       -9.263240e-01
   38       -2.978877e+00
   39       -9.846578e-01
   40       -3.297107e+00
   41       -5.992107e-01
   42       -1.873564e+00
   43        1.155992e-01
   44        1.117815e+00
   45       -8.518742e-01
   46        9.304227e-01
   47       -2.821476e+00
   48       -2.617836e+00
   49       -7.495854e-01
   50       -1.709030e+00
   51       -1.767021e+00
   52        2.777852e+00
   53       -2.114081e+00
   54       -4.518626e-02
   55       -1.160199e-01
   56        1.592037e+00
   57        3.279816e-01
   58       -1.257566e+00
   59        2.871859e+00
   60        2.374822e-01
   61        1.171228e+00
   62       -2.265233e+00
   63       -2.304531e+00
   64       -5.367993e-01
   65        7.483509e+00
   66        1.794225e+00
   67       -1.711359e+00
   68        3.456938e+00
   69       -1.136800e-01
   70        2.555578e+00
   71        3.582995e-01
   72       -2.373219e+00
   73       -3.678714e+00
   74       -3.506772e-01
   75        2.104615e+00
   76        1.263236e+00
   77        1.151072e+00
   78       -2.503011e+00
   79        2.973219e+00
   80        2.038128e+00
   81       -1.619803e+00
   82        1.856281e+00
   83       -2.231260e+00
   84        2.355786e+00
   85       -1.209816e+00
   86        2.115775e-01
   87        1.140538e+00
   88       -1.469328e+00
   89       -2.573879e+00
   90        6.124646e-01
   91       -1.044088e+00
   92       -1.962936e+00
   93       -1.381374e+00
   94        4.560950e+00
   95       -9.133765e-02
   96       -3.695579e+00
   97       -2.421077e+00
   98       -1.583491e+00
   99       -7.212044e-01
  100       -2.049151e+00
;
param X:=
    1        1.864360e+00
    2       -2.646561e+00
    3       -8.973918e-01
    4        1.383420e-01
    5        7.363398e-01
    6       -1.858133e+00
    7       -5.747223e-01
    8       -1.606360e+00
    9        1.273967e+00
   10       -7.326203e-01
   11       -5.667255e-01
   12        4.874355e-01
   13       -3.663463e+00
   14        7.515507e-01
   15        6.495139e-01
   16       -1.518215e+00
   17        3.777396e+00
   18        8.437475e-01
   19       -2.110593e+00
   20        1.069936e-02
   21       -1.005299e+00
   22        5.921060e-01
   23        1.255280e+00
   24       -5.544363e+00
   25        1.322438e+00
   26       -1.193781e+00
   27       -1.560686e+00
   28        2.114585e+00
   29        1.749358e-01
   30        4.992027e+00
   31        1.653443e+00
   32        1.499328e-02
   33       -4.909459e-01
   34        1.131266e+00
   35       -5.885096e-02
   36        2.646478e-01
   37       -9.263240e-01
   38        1.625404e+00
   39       -9.846578e-01
   40        7.958000e-01
   41       -7.369322e-03
   42       -1.873564e+00
   43        1.155992e-01
   44        1.117815e+00
   45       -8.518742e-01
   46        5.735168e-01
   47       -2.821476e+00
   48        4.716590e-01
   49        5.720819e-01
   50       -1.709030e+00
   51        1.477085e+00
   52        4.568029e-01
   53       -2.114081e+00
   54        1.055877e+00
   55       -1.160199e-01
   56        1.020176e-01
   57       -4.753177e-01
   58        8.260799e-01
   59       -4.913336e-01
   60        1.466616e-01
   61        1.761139e+00
   62       -2.265233e+00
   63       -2.304531e+00
   64       -6.180398e-01
   65        7.483509e+00
   66        7.039795e-01
   67        1.365501e+00
   68        3.456938e+00
   69        1.105882e+00
   70        1.645012e+00
   71       -3.753645e-01
   72       -2.373219e+00
   73        7.342260e-01
   74       -3.506772e-01
   75        2.104615e+00
   76        1.263236e+00
   77        1.903817e+00
   78       -1.156750e-01
   79        2.973219e+00
   80        2.038128e+00
   81        1.904696e+00
   82        1.856281e+00
   83       -2.231260e+00
   84       -1.436377e+00
   85       -1.209816e+00
   86       -9.502081e-02
   87        9.112546e-01
   88       -1.469328e+00
   89       -1.205999e+00
   90       -5.850138e-01
   91       -1.044088e+00
   92        6.720937e-01
   93       -6.040882e-01
   94        6.926405e-03
   95        2.955605e-01
   96       -9.829084e-01
   97        7.040153e-02
   98        3.537286e-01
   99       -1.036126e+00
  100       -2.049151e+00
;
param outliervec:=
    1    1
    2    0
    3    0
    4    1
    5    1
    6    0
    7    1
    8    1
    9    1
   10    1
   11    1
   12    1
   13    0
   14    1
   15    1
   16    1
   17    0
   18    0
   19    1
   20    1
   21    1
   22    1
   23    1
   24    0
   25    1
   26    1
   27    0
   28    0
   29    1
   30    0
   31    0
   32    0
   33    1
   34    0
   35    0
   36    1
   37    0
   38    1
   39    0
   40    1
   41    1
   42    0
   43    0
   44    0
   45    0
   46    1
   47    0
   48    1
   49    1
   50    0
   51    1
   52    1
   53    0
   54    1
   55    0
   56    1
   57    1
   58    1
   59    1
   60    1
   61    1
   62    0
   63    0
   64    1
   65    0
   66    1
   67    1
   68    0
   69    1
   70    1
   71    1
   72    0
   73    1
   74    0
   75    0
   76    0
   77    1
   78    1
   79    0
   80    0
   81    1
   82    0
   83    0
   84    1
   85    0
   86    1
   87    1
   88    0
   89    1
   90    1
   91    0
   92    1
   93    1
   94    1
   95    1
   96    1
   97    1
   98    1
   99    1
  100    0
;